c turning on binary mode checking
c parsing input formula with 259840 variables and 1039924 clauses
c finished parsing, read 2420967 bytes from proof file
c detected empty clause; start verification via backward checking
c 1719 of 1039924 clauses in core                            
c 540 of 100779 lemmas in core using 15042 resolution steps
c 0 RAT lemmas in core; 36 redundant literals in core lemmas
s VERIFIED
c verification time: 1.201 seconds
